NAME: tsp20_24
COMMENT: 20-tsp problem (Padberg/Rinaldi)
TYPE: TSP
DIMENSION: 20
EDGE_WEIGHT_TYPE : EUC_2D
NODE_COORD_SECTION
1 11 34
2 16 36
3 37 5
4 28 8
5 17 39
6 36 21
7 7 30
8 33 1
9 15 38
10 28 22
11 18 28
12 31 11
13 5 20
14 34 38
15 18 38
16 17 21
17 35 39
18 31 16
19 16 10
20 37 35
